c preprocessed version of BN_119, 44 vertices, 656 edges
p td 44 656
1 0
17 0
10 0
26 0
28 0
1 2
1 3
1 5
1 6
1 7
1 8
1 9
1 11
1 14
1 15
1 22
1 18
1 19
1 24
1 20
17 1
4 1
10 1
13 1
21 1
26 1
28 1
23 1
25 1
27 1
2 3
4 2
10 2
21 2
26 2
23 2
27 2
4 3
21 3
23 3
27 3
4 5
4 6
4 7
4 8
4 9
4 11
4 12
4 14
4 15
4 22
4 18
4 19
4 20
17 4
4 25
4 27
4 28
4 13
4 21
4 26
4 23
4 10
5 6
5 7
8 5
17 5
13 5
26 5
28 5
23 5
25 5
27 5
7 6
8 6
17 6
13 6
26 6
28 6
23 6
25 6
27 6
8 7
17 7
13 7
21 7
26 7
28 7
23 7
25 7
27 7
8 9
8 14
8 15
8 16
8 22
17 8
10 8
13 8
21 8
26 8
28 8
23 8
25 8
27 8
10 9
13 9
21 9
23 9
25 9
27 9
10 11
10 12
10 14
10 15
10 16
10 22
10 18
10 19
10 20
17 10
10 13
10 21
10 26
10 23
10 25
10 27
10 28
11 12
17 11
13 11
21 11
26 11
28 11
23 11
25 11
27 11
13 12
21 12
26 12
23 12
27 12
13 14
13 15
13 22
13 18
13 19
13 20
17 13
13 27
13 28
13 23
13 25
13 21
13 26
14 15
14 16
14 22
17 14
21 14
26 14
28 14
23 14
25 14
27 14
15 16
15 22
17 15
21 15
26 15
28 15
23 15
25 15
27 15
17 16
21 16
26 16
28 16
17 18
17 19
17 20
17 24
17 21
17 25
17 27
17 26
17 28
17 23
19 18
20 18
21 18
26 18
20 19
21 19
26 19
28 19
23 19
21 20
26 20
28 20
23 20
27 20
21 22
21 27
21 25
21 26
21 28
21 23
23 22
25 22
27 22
23 24
26 23
28 23
23 27
23 25
25 24
26 25
28 25
25 27
26 27
26 28
28 27
29 42
29 39
29 0
29 1
29 32
29 7
29 8
29 9
29 11
29 12
29 18
29 19
29 24
29 41
29 40
29 36
29 34
29 38
29 20
29 43
29 30
29 17
29 31
29 4
29 10
29 33
29 35
29 37
29 13
29 21
29 26
29 28
29 23
29 25
29 27
30 1
30 34
30 41
30 25
30 5
30 7
30 19
30 9
30 14
30 42
30 2
30 15
30 16
30 18
30 3
30 11
30 12
30 6
30 24
30 32
30 39
30 40
30 43
30 21
30 8
30 17
30 31
30 4
30 10
30 33
30 35
30 36
30 37
30 38
30 20
30 13
30 26
30 28
30 23
30 27
31 17
31 42
31 39
31 33
31 2
31 3
31 35
31 25
31 8
31 9
31 37
31 27
31 14
31 15
31 16
31 24
31 18
31 4
31 28
31 19
31 1
31 32
31 34
31 36
31 38
31 20
31 40
31 13
31 43
31 21
31 26
31 23
31 41
31 10
32 42
32 39
32 0
32 1
32 2
32 3
32 5
32 6
32 7
32 8
32 9
32 11
32 12
32 14
32 15
32 16
32 19
32 24
32 34
32 41
32 40
32 43
32 36
32 38
32 20
32 17
32 4
32 10
32 33
32 35
32 37
32 13
32 21
32 26
32 28
32 23
32 25
32 27
33 17
33 4
33 10
33 42
33 39
33 0
33 2
33 3
33 25
33 5
33 6
33 7
33 8
33 11
33 12
33 35
33 27
33 37
33 18
33 28
33 19
33 1
33 34
33 36
33 38
33 20
33 40
33 13
33 43
33 21
33 26
33 23
33 41
34 42
34 39
34 1
34 2
34 5
34 6
34 7
34 8
34 9
34 11
34 36
34 14
34 15
34 16
34 22
34 18
34 19
34 24
34 41
34 40
34 43
34 38
34 20
34 17
34 4
34 10
34 35
34 37
34 13
34 21
34 26
34 28
34 23
34 25
34 27
35 17
35 4
35 10
35 42
35 39
35 2
35 3
35 25
35 8
35 9
35 14
35 15
35 22
35 24
35 37
35 27
35 28
35 19
35 1
35 36
35 38
35 20
35 40
35 13
35 43
35 21
35 26
35 23
35 41
36 42
36 39
36 0
36 1
36 2
36 3
36 7
36 8
36 11
36 12
36 14
36 15
36 22
36 24
36 41
36 40
36 38
36 20
36 43
36 17
36 4
36 10
36 37
36 13
36 21
36 26
36 28
36 23
36 25
36 27
37 17
37 4
37 10
37 27
37 42
37 39
37 2
37 25
37 5
37 6
37 7
37 8
37 9
37 11
37 12
37 14
37 15
37 16
37 22
37 18
37 28
37 19
37 1
37 38
37 20
37 40
37 13
37 43
37 21
37 26
37 23
37 41
38 42
38 39
38 0
38 1
38 2
38 3
38 5
38 6
38 7
38 8
38 9
38 14
38 15
38 16
38 22
38 18
38 19
38 24
38 20
38 41
38 40
38 43
38 17
38 4
38 10
38 13
38 21
38 26
38 28
38 23
38 25
38 27
39 42
39 0
39 2
39 5
39 14
39 15
39 22
39 11
39 12
39 24
39 8
39 1
39 40
39 43
39 41
39 17
39 4
39 10
39 13
39 21
39 26
39 28
39 23
39 25
39 27
40 42
40 0
40 1
40 2
40 7
40 8
40 11
40 12
40 14
40 15
40 16
40 18
40 19
40 20
40 41
40 24
40 43
40 17
40 4
40 10
40 13
40 21
40 26
40 28
40 23
40 25
40 27
41 43
41 42
41 0
41 1
41 2
41 20
41 17
41 4
41 10
41 13
41 21
41 26
41 28
41 23
41 27
42 43
42 17
42 21
42 28
42 23
42 27
43 0
43 1
43 2
43 3
43 5
43 8
43 11
43 14
43 15
43 19
43 20
43 24
43 17
43 4
43 10
43 13
43 21
43 26
43 28
43 23
43 25
43 27
